Solving original (integer) problem with strategy gdp.hull...
--- Job model.gms Start 02/15/26 02:51:30 52.2.0 d8e408be LEX-LEG x86 64bit/Linux
--- Applying:
    /package/gams/52.2/gmsprmun.txt
--- GAMS Parameters defined
    Input /local/scratch/a/sgusev/repos/k_means/data/gams_gurobi_gdp.hull/no_mode/2026-02-15_02-51-29/original/model.gms
    Output /local/scratch/a/sgusev/repos/k_means/data/gams_gurobi_gdp.hull/no_mode/2026-02-15_02-51-29/original/output.lst
    ScrDir /local/scratch/a/sgusev/repos/k_means/data/gams_gurobi_gdp.hull/no_mode/2026-02-15_02-51-29/original/225a/
    SysDir /package/gams/52.2/
    CurDir /local/scratch/a/sgusev/repos/k_means/data/gams_gurobi_gdp.hull/no_mode/2026-02-15_02-51-29/original/
    LogOption 3
    AppendLog 1
Licensee: David Bernal / SECQUOIA Research Group         G251008+0003Ac-GEN
          Purdue University, Davidson School of Chemical EngineeringDCE4838
          225a/gamslice.dat
          5a82958a-fbca-4a23
          node:66820903 mem:995 cores:48 ipport:41855 v:2                  
          Evaluation license: Not for commercial or production use
          The time-limited license stops working on : Jun 30, 2027
System information: 48 physical cores and 995 Gb physical memory detected
GAMS 52.2.0   Copyright (C) 1987-2025 GAMS Development. All rights reserved
--- Starting compilation
--- model.gms(3915) 2 Mb
--- $echo File /local/scratch/a/sgusev/repos/k_means/data/gams_gurobi_gdp.hull/no_mode/2026-02-15_02-51-29/original/gurobi.opt
--- model.gms(5749) 2 Mb
--- Starting execution: elapsed 0:00:00.020
--- model.gms(3924) 3 Mb
--- Generating MINLP model GAMS_MODEL
--- model.gms(3928) 6 Mb
---   1,194 rows  574 columns  2,897 non-zeroes
---   2,720 nl-code  340 nl-non-zeroes
---   68 discrete-columns
--- Range statistics (absolute non-zero finite values)
--- RHS       [min, max] : [ 4.086E-05, 1.000E+00] - Zero values observed as well
--- Bound     [min, max] : [ 1.000E+00, 1.020E+02] - Zero values observed as well
--- Matrix    [min, max] : [ 1.988E-02, 1.020E+02]
--- model.gms(3928) 4 Mb
--- Executing GUROBI (Solvelink=5): elapsed 0:00:00.027
Reading parameter(s) from "/local/scratch/a/sgusev/repos/k_means/data/gams_gurobi_gdp.hull/no_mode/2026-02-15_02-51-29/original/gurobi.opt"
>>  NonConvex 2
>>  Threads 1
>>  MIPGap 1e-06
>>  MIPGapAbs 1e-10
>>  FeasibilityTol 1e-06
>>  OptimalityTol 1e-06
>>  IntFeasTol 1e-05
Finished reading from "/local/scratch/a/sgusev/repos/k_means/data/gams_gurobi_gdp.hull/no_mode/2026-02-15_02-51-29/original/gurobi.opt"

... GRB_LICENSE_FILE = /local/scratch/a/sgusev/gurobi.lic

    Gurobi           52.2.0 d8e408be Dec 8, 2025           LEG x86 64bit/Linux    

... GAMS/Gurobi Link license.
... GMO Q Extraction (ThreePass): 0.00s

    Gurobi Optimizer version 13.0.0 build v13.0.0rc1 (linux64 - "Oracle Linux Server 9.7")
    
    CPU model: AMD EPYC 7643 48-Core Processor, instruction set [SSE2|AVX|AVX2]
    Thread count: 48 physical cores, 96 logical processors, using up to 1 threads
    
    Non-default parameters:
    TimeLimit  300
    MIPGap  1e-06
    LogToConsole  0
    NonConvex  2
    Threads  1
    
    Optimize a model with 1193 rows, 641 columns and 2607 nonzeros (Min)
    Model fingerprint: 0x0b6bc56d
    Model has 17 linear objective coefficients
    Model has 68 general nonlinear constraints (544 nonlinear terms)
    Variable types: 573 continuous, 68 integer (0 binary)
    Coefficient statistics:
      Matrix range     [1e+00, 1e+02]
      Objective range  [1e+00, 1e+00]
      Bounds range     [1e+00, 1e+02]
      RHS range        [1e+00, 1e+00]
      NLCon coe range  [4e-05, 1e+00]
    Presolve model has 68 nlconstr
    Added 1156 variables to disaggregate expressions
    Presolve removed 272 rows and 221 columns
    Presolve time: 0.01s
    Presolved: 3573 rows, 1577 columns, 9118 nonzeros
    Presolved model has 544 bilinear constraint(s)
    
    Solving non-convex MIQCP to global optimality
    
    Variable types: 1509 continuous, 68 integer (68 binary)
    Found heuristic solution: objective 18.6689965
    
    Root relaxation: objective 0.000000e+00, 1181 iterations, 0.00 seconds (0.00 work units)
    
        Nodes    |    Current Node    |     Objective Bounds      |     Work
     Expl Unexpl |  Obj  Depth IntInf | Incumbent    BestBd   Gap | It/Node Time
    
         0     0    0.00000    0  476   18.66900    0.00000   100%     -    0s
         0     0    0.00000    0  440   18.66900    0.00000   100%     -    0s
         0     0    0.00000    0 1099   18.66900    0.00000   100%     -    0s
         0     0    0.00000    0  554   18.66900    0.00000   100%     -    0s
         0     0    0.00000    0  406   18.66900    0.00000   100%     -    0s
         0     0    0.00000    0  255   18.66900    0.00000   100%     -    0s
         0     0    0.00000    0  251   18.66900    0.00000   100%     -    0s
         0     0    0.00000    0  308   18.66900    0.00000   100%     -    0s
         0     0    0.00000    0  150   18.66900    0.00000   100%     -    0s
         0     0    0.00000    0  150   18.66900    0.00000   100%     -    0s
         0     0    0.00000    0  150   18.66900    0.00000   100%     -    0s
    H    0     0                      14.5036943    0.00000   100%     -    0s
    H    0     0                      13.5324000    0.00000   100%     -    0s
         0     2    0.00000    0  150   13.53240    0.00000   100%     -    0s
    H    1     1                      12.2453283    0.00000   100%   0.0    0s
    H    4     4                       9.5973071    0.00000   100%  26.8    0s
    H  593   458                       8.7575205    0.00000   100%  33.3    4s
    H  602   441                       8.7575205    0.00000   100%  33.7    4s
    H  618   428                       8.7303328    0.00000   100%  34.0    4s
       649   449    4.73555   40   94    8.73033    0.00000   100%  33.1    5s
    H  765   481                       8.7303324    0.00000   100%  31.0    5s
    H  772   466                       8.6590039    0.00000   100%  31.3    5s
    H  788   457                       8.6590039    0.00000   100%  31.2    5s
    H  847   477                       8.3748552    0.00000   100%  30.4    5s
    H 1517   809                       8.3748552    0.00000   100%  34.4    8s
    H 1705   914                       8.1962881    0.00000   100%  34.2    8s
    H 1705   865                       7.7345767    0.00000   100%  34.2    8s
    H 1705   865                       7.7342365    0.00000   100%  34.2    8s
    H 1705   865                       7.7342049    0.00000   100%  34.2    8s
    H 1707   867                       7.7341761    0.00000   100%  34.3    8s
    H 1710   870                       7.7341756    0.00000   100%  34.3    8s
    H 1751   907                       7.7341756    0.00000   100%  34.1    8s
    H 1771   921                       7.7341256    0.00000   100%  34.3    8s
    H 1790   938                       7.7341245    0.00000   100%  34.4    8s
    H 1804   950                       7.7334196    0.00000   100%  34.3    8s
    H 1996  1092                       7.7334158    0.00000   100%  31.6    9s
    H 1996  1092                       7.7334158    0.00000   100%  31.6    9s
    H 2031  1109                       7.7213503    0.00000   100%  31.4    9s
    H 2031  1099                       7.6989477    0.00000   100%  31.4    9s
    H 2031  1099                       7.6989477    0.00000   100%  31.4    9s
    H 2031  1098                       7.6948861    0.00000   100%  31.4    9s
    H 2034  1101                       7.6948228    0.00000   100%  31.6    9s
    H 2034  1101                       7.6948062    0.00000   100%  31.6    9s
    H 2096  1163                       7.6948050    0.00000   100%  32.6    9s
    H 2231  1266                       7.6948033    0.00000   100%  31.9    9s
      2238  1269    0.70852   23  179    7.69480    0.00000   100%  32.0   10s
    H 3345  1950                       7.5350436    0.00000   100%  31.2   13s
    H 3349  1954                       7.5350436    0.00000   100%  31.3   13s
    H 3468  2063                       7.5350436    0.00000   100%  30.8   13s
    H 3468  2063                       7.5350436    0.00000   100%  30.8   13s
    H 3578  2040                       7.3282908    0.00000   100%  30.7   13s
    H 3578  2040                       7.3282908    0.00000   100%  30.7   13s
    H 3583  1910                       7.0528751    0.00000   100%  30.8   13s
    H 3587  1914                       7.0511684    0.00000   100%  30.8   13s
    H 3587  1914                       7.0499755    0.00000   100%  30.8   13s
    H 3587  1914                       7.0499755    0.00000   100%  30.8   13s
    H 3597  1920                       7.0308869    0.00000   100%  30.8   13s
    H 3720  1989                       7.0308865    0.00000   100%  30.8   14s
      3933  2093    5.12041   36  106    7.03089    0.03349   100%  30.8   15s
    H 4235  2295                       7.0308478    0.04887  99.3%  30.3   15s
    H 4235  2295                       7.0302419    0.04887  99.3%  30.3   15s
    H 4235  2295                       7.0302419    0.04887  99.3%  30.3   15s
    H 4369  2378                       7.0223537    0.04887  99.3%  30.3   16s
    H 4376  2379                       7.0203469    0.04887  99.3%  30.4   16s
    H 4376  2379                       7.0201627    0.04887  99.3%  30.4   16s
    H 4376  2379                       7.0194712    0.04887  99.3%  30.4   16s
    H 4392  2386                       7.0192558    0.04887  99.3%  30.4   16s
    H 4392  2386                       7.0105468    0.04887  99.3%  30.4   16s
    H 4392  2386                       7.0105424    0.04887  99.3%  30.4   16s
    H 4392  2386                       7.0105386    0.04887  99.3%  30.4   16s
    H 4398  2390                       7.0101264    0.05096  99.3%  30.5   16s
      5258  2872    0.77500   39  145    7.01013    0.21121  97.0%  33.7   20s
    H 5599  2907                       6.6989076    0.21121  96.8%  33.9   20s
    H 5843  2888                       6.6989076    0.21121  96.8%  34.7   21s
    H 6103  2897                       6.6989076    0.21121  96.8%  34.2   21s
    H 6143  2797                       6.6728516    0.21121  96.8%  34.0   21s
    H 6143  2682                       6.6466709    0.21121  96.8%  34.0   21s
    H 6143  2574                       6.6387913    0.21121  96.8%  34.0   21s
    H 6143  2471                       6.6361968    0.21121  96.8%  34.0   21s
    H 6197  2398                       6.6296908    0.21121  96.8%  33.7   21s
    H 6197  2305                       6.6230425    0.21121  96.8%  33.7   21s
    H 6251  2245                       6.6196017    0.21121  96.8%  33.5   22s
    H 6251  2161                       6.6132307    0.21121  96.8%  33.5   22s
    H 6305  2110                       6.6117593    0.21121  96.8%  33.2   22s
    H 6305  2034                       6.6055883    0.21121  96.8%  33.2   22s
    H 6576  2067                       6.5925845    0.21121  96.8%  32.5   22s
    H 6779  2097                       6.5925839    0.21121  96.8%  32.6   22s
      7812  2469    6.14185   64  105    6.59258    0.21121  96.8%  32.2   25s
    H 8292  2493                       6.5875515    0.21121  96.8%  32.4   25s
    H 8500  2497                       6.5875358    0.23814  96.4%  32.6   26s
    H 8553  2478                       6.5872764    0.25475  96.1%  32.6   26s
    H 9504  2987                       6.5872739    0.37090  94.4%  32.1   28s
    H 9784  3139                       6.5871594    0.41206  93.7%  32.0   28s
     10495  3656    3.80854   35  117    6.58716    0.53663  91.9%  31.1   30s
    H10609  3721                       6.5871495    0.53663  91.9%  31.0   30s
    H10609  3721                       6.5871474    0.53663  91.9%  31.0   30s
    H10661  3745                       6.5869944    0.54053  91.8%  30.9   30s
    H10661  3745                       6.5869699    0.54053  91.8%  30.9   30s
    H10661  3745                       6.5869699    0.54053  91.8%  30.9   30s
     13073  4950    4.07331   51  130    6.58697    0.77538  88.2%  31.5   35s
     15303  6010    4.65261   41  133    6.58697    1.01690  84.6%  31.3   41s
     16871  6748    5.40373   65   67    6.58697    1.11519  83.1%  31.9   45s
     19326  7850    2.31715   35  165    6.58697    1.32303  79.9%  32.5   50s
     21905  9042    1.50819   34  174    6.58697    1.45369  77.9%  33.0   55s
     24248  9962    4.25825   34  124    6.58697    1.56474  76.2%  33.6   60s
     26931 11137    3.67915   50  137    6.58697    1.68429  74.4%  33.7   65s
     29364 12124    4.78510   33  136    6.58697    1.79744  72.7%  33.9   70s
     32151 13173     cutoff   52         6.58697    1.94925  70.4%  33.9   75s
     34838 14231     cutoff   55         6.58697    2.05001  68.9%  33.9   80s
    H35783 14424                       6.4714518    2.07675  67.9%  33.9   81s
    H35796 14435                       6.4714518    2.07675  67.9%  33.9   81s
    H36792 15015                       6.4714512    2.09871  67.6%  33.6   83s
    H36991 15094                       6.4714500    2.10361  67.5%  33.5   84s
     37492 15365    6.43886  111   23    6.47145    2.11883  67.3%  33.4   85s
    H39451 16041                       6.4714497    2.18154  66.3%  33.5   88s
    H39477 16055                       6.4714496    2.18154  66.3%  33.5   88s
    H39529 16067                       6.4714496    2.18156  66.3%  33.5   89s
     40007 16267    5.94854   48   83    6.47145    2.19235  66.1%  33.5   90s
     42658 17200    4.59310   30  133    6.47145    2.26857  64.9%  33.6   95s
    H42834 17269                       6.4714474    2.27555  64.8%  33.6   95s
    H42834 17269                       6.4714474    2.27555  64.8%  33.6   95s
     45315 18181    2.78712   58  119    6.47145    2.33717  63.9%  33.5  100s
    H45352 18196                       6.4714471    2.33743  63.9%  33.5  100s
     47948 19114    4.61261   32  142    6.47145    2.39909  62.9%  33.4  105s
    H50534 19908                       6.4714457    2.46405  61.9%  33.4  109s
    H50534 19908                       6.4714450    2.46405  61.9%  33.4  109s
     50636 19948    6.16058   66   74    6.47145    2.46727  61.9%  33.4  110s
     53196 20934     cutoff   66         6.47145    2.49692  61.4%  33.5  115s
     55905 21863    5.85431   66   70    6.47145    2.54979  60.6%  33.4  120s
     58500 22605    5.58375   39  119    6.47145    2.60706  59.7%  33.4  125s
     61221 23426    4.40602   53  108    6.47145    2.65560  59.0%  33.4  130s
     63855 24262    3.83062   50  125    6.47145    2.70736  58.2%  33.3  135s
     66802 25183    5.90763   54   75    6.47145    2.77065  57.2%  33.1  140s
     69611 25924    3.22017   51  119    6.47145    2.81398  56.5%  33.0  145s
     72291 26756    5.18540   48  131    6.47145    2.85917  55.8%  33.0  150s
     75151 27553    4.01346   33  129    6.47145    2.89912  55.2%  33.0  155s
     78007 28251    4.95375   35  119    6.47145    2.94603  54.5%  32.9  160s
     80417 28911     cutoff   47         6.47145    2.97536  54.0%  32.9  165s
     83250 29615    5.77223   54  115    6.47145    3.01918  53.3%  32.9  170s
     86066 30270    4.89646   42  126    6.47145    3.06340  52.7%  32.8  175s
     88854 31023    5.76695   47  108    6.47145    3.10550  52.0%  32.7  180s
     91727 31720    5.33906   41  133    6.47145    3.14771  51.4%  32.7  185s
     94540 32518    4.73051   63  100    6.47145    3.17722  50.9%  32.6  190s
     97356 33226    5.84847   45  140    6.47145    3.21266  50.4%  32.5  195s
     100166 33842    5.54559   55  101    6.47145    3.24943  49.8%  32.5  200s
     103001 34460     cutoff   59         6.47145    3.28741  49.2%  32.5  205s
     105675 35046    6.08367   59   78    6.47145    3.32087  48.7%  32.4  210s
     108470 35639 infeasible   35         6.47145    3.34930  48.2%  32.4  215s
     111272 36497    6.35000   49  100    6.47145    3.37680  47.8%  32.2  220s
     114059 37150    3.50693   54  121    6.47145    3.40108  47.4%  32.2  225s
     116820 37722    6.02076   51  102    6.47145    3.42408  47.1%  32.2  230s
     119520 38259    5.97475   43   96    6.47145    3.45624  46.6%  32.1  235s
     122379 38823     cutoff   60         6.47145    3.48534  46.1%  32.0  240s
     125159 39388     cutoff   54         6.47145    3.51413  45.7%  32.0  245s
     127838 39880    4.66444   60  115    6.47145    3.53812  45.3%  31.9  250s
     130569 40412    5.67304   39  120    6.47145    3.56272  44.9%  31.9  255s
     133407 40909    5.23214   62  135    6.47145    3.58846  44.5%  31.8  260s
     135888 41293    5.73581   47  118    6.47145    3.60987  44.2%  31.7  265s
     138681 41956    5.83018   46  107    6.47145    3.63288  43.9%  31.7  270s
     141520 42560     cutoff   39         6.47145    3.65099  43.6%  31.7  275s
     144122 43073    4.79494   54  137    6.47145    3.67060  43.3%  31.6  280s
     146973 43576    5.77007   40  107    6.47145    3.69737  42.9%  31.6  285s
     149754 44059    5.81121   48  101    6.47145    3.72539  42.4%  31.5  290s
     152654 44530    5.08972   38  142    6.47145    3.75302  42.0%  31.5  295s
    
    Cutting planes:
      Learned: 104
      Gomory: 3
      Implied bound: 50
      Projected implied bound: 9
      MIR: 20
      Flow cover: 105
      RLT: 23
      Relax-and-lift: 14
      PSD: 5
    
    Explored 155502 nodes (4896128 simplex iterations) in 300.00 seconds (227.35 work units)
    Thread count was 1 (of 96 available processors)
    
    Solution count 10: 6.47145 6.47145 6.47145 ... 6.58697
    
    Time limit reached
    Best objective 6.471445019798e+00, best bound 3.776703702417e+00, gap 41.6405%
    
    User-callback calls 155598, time in user-callback 0.01 sec

--- Reading solution for model GAMS_MODEL
***
*** Solver did not provide marginals for model GAMS_MODEL
***
--- Executing after solve: elapsed 0:05:00.093
--- model.gms(3931) 4 Mb
--- model.gms(5749) 6 Mb
--- Putfile results /local/scratch/a/sgusev/repos/k_means/data/gams_gurobi_gdp.hull/no_mode/2026-02-15_02-51-29/original/results.dat
--- Putfile statresults /local/scratch/a/sgusev/repos/k_means/data/gams_gurobi_gdp.hull/no_mode/2026-02-15_02-51-29/original/resultsstat.dat
*** Status: Normal completion
--- Job model.gms Stop 02/15/26 02:56:30 elapsed 0:05:00.096
Original problem solved. Time taken: 300.722371339798 seconds
Original objective value: 6.471445019797645
